
Gurobi 7.0.2 (mac64, Python) logging started Fri Jul 13 18:56:31 2018

Optimize a model with 36 rows, 32 columns and 120 nonzeros
Coefficient statistics:
  Matrix range     [1e+00, 5e+01]
  Objective range  [2e-01, 2e-01]
  Bounds range     [0e+00, 0e+00]
  RHS range        [1e+02, 9e+02]
Presolve removed 30 rows and 25 columns
Presolve time: 0.00s
Presolved: 6 rows, 7 columns, 12 nonzeros

Iteration    Objective       Primal Inf.    Dual Inf.      Time
       0   -5.0000000e+31   4.687500e+30   5.000000e+01      0s
       4   -6.5000000e+01   0.000000e+00   0.000000e+00      0s

Solved in 4 iterations and 0.00 seconds
Optimal objective -6.500000000e+01
Optimize a model with 36 rows, 32 columns and 120 nonzeros
Coefficient statistics:
  Matrix range     [1e+00, 5e+01]
  Objective range  [1e-02, 2e-01]
  Bounds range     [0e+00, 0e+00]
  RHS range        [1e+02, 9e+02]
Presolve removed 6 rows and 0 columns
Presolve time: 0.00s
Presolved: 30 rows, 32 columns, 108 nonzeros

Iteration    Objective       Primal Inf.    Dual Inf.      Time
       0      handle free variables                          0s
       9   -6.4000000e+01   0.000000e+00   0.000000e+00      0s

Solved in 9 iterations and 0.00 seconds
Optimal objective -6.400000000e+01
Optimize a model with 36 rows, 32 columns and 120 nonzeros
Coefficient statistics:
  Matrix range     [1e+00, 5e+01]
  Objective range  [5e-02, 2e-01]
  Bounds range     [0e+00, 0e+00]
  RHS range        [1e+02, 9e+02]
Presolve removed 6 rows and 0 columns
Presolve time: 0.00s
Presolved: 30 rows, 32 columns, 108 nonzeros

Iteration    Objective       Primal Inf.    Dual Inf.      Time
       0      handle free variables                          0s
       9   -6.0000000e+01   0.000000e+00   0.000000e+00      0s

Solved in 9 iterations and 0.00 seconds
Optimal objective -6.000000000e+01
Optimize a model with 36 rows, 32 columns and 120 nonzeros
Coefficient statistics:
  Matrix range     [1e+00, 5e+01]
  Objective range  [1e-01, 2e-01]
  Bounds range     [0e+00, 0e+00]
  RHS range        [1e+02, 9e+02]
Presolve removed 6 rows and 0 columns
Presolve time: 0.00s
Presolved: 30 rows, 32 columns, 108 nonzeros

Iteration    Objective       Primal Inf.    Dual Inf.      Time
       0      handle free variables                          0s
       9   -5.5000000e+01   0.000000e+00   0.000000e+00      0s

Solved in 9 iterations and 0.00 seconds
Optimal objective -5.500000000e+01
Optimize a model with 36 rows, 32 columns and 120 nonzeros
Coefficient statistics:
  Matrix range     [1e+00, 5e+01]
  Objective range  [2e-01, 5e-01]
  Bounds range     [0e+00, 0e+00]
  RHS range        [1e+02, 9e+02]
Presolve removed 6 rows and 0 columns
Presolve time: 0.00s
Presolved: 30 rows, 32 columns, 108 nonzeros

Iteration    Objective       Primal Inf.    Dual Inf.      Time
       0      handle free variables                          0s
      20   -1.5000000e+01   0.000000e+00   0.000000e+00      0s

Solved in 20 iterations and 0.00 seconds
Optimal objective -1.500000000e+01

Gurobi 7.0.2 (mac64, Python) logging started Fri Jul 13 19:03:25 2018


Gurobi 7.0.2 (mac64, Python) logging started Fri Jul 13 19:03:48 2018


Gurobi 7.0.2 (mac64, Python) logging started Fri Jul 13 19:04:21 2018


Gurobi 7.0.2 (mac64, Python) logging started Fri Jul 13 19:04:42 2018


Gurobi 7.0.2 (mac64, Python) logging started Fri Jul 13 19:06:53 2018


Gurobi 7.0.2 (mac64, Python) logging started Fri Jul 13 19:07:20 2018


Gurobi 7.0.2 (mac64, Python) logging started Fri Jul 13 19:08:49 2018


Gurobi 7.0.2 (mac64, Python) logging started Fri Jul 13 19:10:50 2018


Gurobi 7.0.2 (mac64, Python) logging started Fri Jul 13 19:11:12 2018


Gurobi 7.0.2 (mac64, Python) logging started Fri Jul 13 19:11:57 2018


Gurobi 7.0.2 (mac64, Python) logging started Fri Jul 13 19:13:33 2018


Gurobi 7.0.2 (mac64, Python) logging started Fri Jul 13 19:23:38 2018


Gurobi 7.0.2 (mac64, Python) logging started Fri Jul 13 19:25:39 2018


Gurobi 7.0.2 (mac64, Python) logging started Fri Jul 13 19:26:27 2018


Gurobi 7.0.2 (mac64, Python) logging started Fri Jul 13 19:28:41 2018


Gurobi 7.0.2 (mac64, Python) logging started Fri Jul 13 19:38:53 2018


Gurobi 7.0.2 (mac64, Python) logging started Fri Jul 13 19:40:41 2018


Gurobi 7.0.2 (mac64, Python) logging started Fri Jul 13 19:41:38 2018


Gurobi 7.0.2 (mac64, Python) logging started Fri Jul 13 19:42:02 2018


Gurobi 7.0.2 (mac64, Python) logging started Fri Jul 13 19:43:35 2018


Gurobi 7.0.2 (mac64, Python) logging started Fri Jul 13 19:44:15 2018


Gurobi 7.0.2 (mac64, Python) logging started Fri Jul 13 19:49:03 2018


Gurobi 7.0.2 (mac64, Python) logging started Fri Jul 13 19:54:52 2018


Gurobi 7.0.2 (mac64, Python) logging started Fri Jul 13 19:56:04 2018


Gurobi 7.0.2 (mac64, Python) logging started Fri Jul 13 19:56:15 2018


Gurobi 7.0.2 (mac64, Python) logging started Fri Jul 13 19:56:32 2018


Gurobi 7.0.2 (mac64, Python) logging started Fri Jul 13 19:57:09 2018


Gurobi 7.0.2 (mac64, Python) logging started Fri Jul 13 19:58:09 2018


Gurobi 7.0.2 (mac64, Python) logging started Fri Jul 13 19:58:41 2018


Gurobi 7.0.2 (mac64, Python) logging started Fri Jul 13 19:59:24 2018


Gurobi 7.0.2 (mac64, Python) logging started Fri Jul 13 20:00:51 2018


Gurobi 7.0.2 (mac64, Python) logging started Fri Jul 13 20:08:10 2018


Gurobi 7.0.2 (mac64, Python) logging started Fri Jul 13 20:09:47 2018


Gurobi 7.0.2 (mac64, Python) logging started Fri Jul 13 20:10:21 2018


Gurobi 7.0.2 (mac64, Python) logging started Fri Jul 13 20:11:22 2018


Gurobi 7.0.2 (mac64, Python) logging started Fri Jul 13 20:13:58 2018


Gurobi 7.0.2 (mac64, Python) logging started Fri Jul 13 20:18:53 2018


Gurobi 7.0.2 (mac64, Python) logging started Fri Jul 13 20:27:22 2018


Gurobi 7.0.2 (mac64, Python) logging started Fri Jul 13 20:28:36 2018


Gurobi 7.0.2 (mac64, Python) logging started Fri Jul 13 20:30:59 2018


Gurobi 7.0.2 (mac64, Python) logging started Fri Jul 13 20:32:42 2018


Gurobi 7.0.2 (mac64, Python) logging started Fri Jul 13 20:35:14 2018


Gurobi 7.0.2 (mac64, Python) logging started Fri Jul 13 20:37:51 2018


Gurobi 7.0.2 (mac64, Python) logging started Fri Jul 13 20:40:41 2018


Gurobi 7.0.2 (mac64, Python) logging started Fri Jul 13 20:41:40 2018


Gurobi 7.0.2 (mac64, Python) logging started Fri Jul 13 20:42:26 2018


Gurobi 7.0.2 (mac64, Python) logging started Fri Jul 13 20:45:47 2018


Gurobi 7.0.2 (mac64, Python) logging started Fri Jul 13 20:46:15 2018


Gurobi 7.0.2 (mac64, Python) logging started Fri Jul 13 20:46:37 2018


Gurobi 7.0.2 (mac64, Python) logging started Fri Jul 13 20:47:13 2018


Gurobi 7.0.2 (mac64, Python) logging started Fri Jul 13 20:54:56 2018


Gurobi 7.0.2 (mac64, Python) logging started Fri Jul 13 20:55:24 2018


Gurobi 7.0.2 (mac64, Python) logging started Fri Jul 13 20:56:31 2018


Gurobi 7.0.2 (mac64, Python) logging started Fri Jul 13 20:58:01 2018


Gurobi 7.0.2 (mac64, Python) logging started Fri Jul 13 20:59:58 2018


Gurobi 7.0.2 (mac64, Python) logging started Fri Jul 13 21:02:53 2018


Gurobi 7.0.2 (mac64, Python) logging started Fri Jul 13 21:03:59 2018


Gurobi 7.0.2 (mac64, Python) logging started Fri Jul 13 21:05:01 2018


Gurobi 7.0.2 (mac64, Python) logging started Fri Jul 13 21:05:32 2018


Gurobi 7.0.2 (mac64, Python) logging started Mon Jul 16 09:20:07 2018


Gurobi 7.0.2 (mac64, Python) logging started Mon Jul 16 09:27:08 2018


Gurobi 7.0.2 (mac64, Python) logging started Mon Jul 16 09:39:25 2018


Gurobi 7.0.2 (mac64, Python) logging started Mon Jul 16 09:39:51 2018


Gurobi 7.0.2 (mac64, Python) logging started Mon Jul 16 09:40:40 2018


Gurobi 7.0.2 (mac64, Python) logging started Mon Jul 16 09:41:14 2018


Gurobi 7.0.2 (mac64, Python) logging started Mon Jul 16 09:41:35 2018


Gurobi 7.0.2 (mac64, Python) logging started Mon Jul 16 09:41:54 2018


Gurobi 7.0.2 (mac64, Python) logging started Mon Jul 16 09:42:18 2018


Gurobi 7.0.2 (mac64, Python) logging started Mon Jul 16 11:01:15 2018


Gurobi 7.0.2 (mac64, Python) logging started Mon Jul 16 11:02:00 2018


Gurobi 7.0.2 (mac64, Python) logging started Mon Jul 16 11:02:45 2018


Gurobi 7.0.2 (mac64, Python) logging started Mon Jul 16 11:03:59 2018


Gurobi 7.0.2 (mac64, Python) logging started Mon Jul 16 11:05:53 2018


Gurobi 7.0.2 (mac64, Python) logging started Mon Jul 16 11:06:43 2018


Gurobi 7.0.2 (mac64, Python) logging started Mon Jul 16 11:13:59 2018


Gurobi 7.0.2 (mac64, Python) logging started Mon Jul 16 11:14:33 2018


Gurobi 7.0.2 (mac64, Python) logging started Mon Jul 16 11:14:44 2018


Gurobi 7.0.2 (mac64, Python) logging started Mon Jul 16 11:14:54 2018


Gurobi 7.0.2 (mac64, Python) logging started Mon Jul 16 11:15:20 2018


Gurobi 7.0.2 (mac64, Python) logging started Mon Jul 16 11:21:01 2018


Gurobi 7.0.2 (mac64, Python) logging started Mon Jul 16 11:21:41 2018


Gurobi 7.0.2 (mac64, Python) logging started Mon Jul 16 11:22:28 2018


Gurobi 7.0.2 (mac64, Python) logging started Mon Jul 16 11:23:23 2018


Gurobi 7.0.2 (mac64, Python) logging started Mon Jul 16 11:24:50 2018


Gurobi 7.0.2 (mac64, Python) logging started Mon Jul 16 11:24:57 2018


Gurobi 7.0.2 (mac64, Python) logging started Mon Jul 16 11:39:11 2018


Gurobi 7.0.2 (mac64, Python) logging started Mon Jul 16 11:41:32 2018


Gurobi 7.0.2 (mac64, Python) logging started Mon Jul 16 11:42:25 2018


Gurobi 7.0.2 (mac64, Python) logging started Mon Jul 16 11:44:57 2018


Gurobi 7.0.2 (mac64, Python) logging started Mon Jul 16 11:45:54 2018


Gurobi 7.0.2 (mac64, Python) logging started Mon Jul 16 11:46:23 2018


Gurobi 7.0.2 (mac64, Python) logging started Mon Jul 16 12:49:19 2018


Gurobi 7.0.2 (mac64, Python) logging started Mon Jul 16 12:50:27 2018


Gurobi 7.0.2 (mac64, Python) logging started Mon Jul 16 12:51:05 2018


Gurobi 7.0.2 (mac64, Python) logging started Mon Jul 16 12:51:18 2018


Gurobi 7.0.2 (mac64, Python) logging started Mon Jul 16 12:51:28 2018


Gurobi 7.0.2 (mac64, Python) logging started Mon Jul 16 12:51:54 2018


Gurobi 7.0.2 (mac64, Python) logging started Mon Jul 16 12:52:48 2018


Gurobi 7.0.2 (mac64, Python) logging started Mon Jul 16 12:53:18 2018


Gurobi 7.0.2 (mac64, Python) logging started Mon Jul 16 12:53:48 2018


Gurobi 7.0.2 (mac64, Python) logging started Mon Jul 16 12:54:01 2018


Gurobi 7.0.2 (mac64, Python) logging started Wed Jul 18 15:46:25 2018


Gurobi 7.0.2 (mac64, Python) logging started Wed Jul 18 15:46:35 2018


Gurobi 7.0.2 (mac64, Python) logging started Wed Jul 18 15:53:16 2018


Gurobi 7.0.2 (mac64, Python) logging started Wed Jul 18 15:54:34 2018


Gurobi 7.0.2 (mac64, Python) logging started Wed Jul 18 15:54:55 2018


Gurobi 7.0.2 (mac64, Python) logging started Wed Jul 18 15:55:14 2018


Gurobi 7.0.2 (mac64, Python) logging started Wed Jul 18 15:56:07 2018


Gurobi 7.0.2 (mac64, Python) logging started Wed Jul 18 15:56:21 2018


Gurobi 7.0.2 (mac64, Python) logging started Wed Jul 18 15:56:40 2018


Gurobi 7.0.2 (mac64, Python) logging started Wed Jul 18 15:56:56 2018


Gurobi 7.0.2 (mac64, Python) logging started Wed Jul 18 15:59:10 2018


Gurobi 7.0.2 (mac64, Python) logging started Wed Jul 18 15:59:32 2018


Gurobi 7.0.2 (mac64, Python) logging started Wed Jul 18 16:03:14 2018


Gurobi 7.0.2 (mac64, Python) logging started Wed Jul 18 16:03:48 2018


Gurobi 7.0.2 (mac64, Python) logging started Wed Jul 18 16:12:32 2018


Gurobi 7.0.2 (mac64, Python) logging started Wed Jul 18 16:20:19 2018


Gurobi 7.0.2 (mac64, Python) logging started Wed Jul 18 16:20:46 2018


Gurobi 7.0.2 (mac64, Python) logging started Wed Jul 18 16:21:59 2018


Gurobi 7.0.2 (mac64, Python) logging started Wed Jul 18 16:24:00 2018


Gurobi 7.0.2 (mac64, Python) logging started Wed Jul 18 16:26:04 2018


Gurobi 7.0.2 (mac64, Python) logging started Wed Jul 18 16:26:47 2018


Gurobi 7.0.2 (mac64, Python) logging started Wed Jul 18 16:28:48 2018


Gurobi 7.0.2 (mac64, Python) logging started Wed Jul 18 16:29:06 2018


Gurobi 7.0.2 (mac64, Python) logging started Wed Jul 18 16:29:52 2018


Gurobi 7.0.2 (mac64, Python) logging started Wed Jul 18 16:31:27 2018


Gurobi 7.0.2 (mac64, Python) logging started Wed Jul 18 16:32:21 2018


Gurobi 7.0.2 (mac64, Python) logging started Wed Jul 18 16:34:35 2018


Gurobi 7.0.2 (mac64, Python) logging started Wed Jul 18 16:34:49 2018


Gurobi 7.0.2 (mac64, Python) logging started Wed Jul 18 16:36:22 2018


Gurobi 7.0.2 (mac64, Python) logging started Wed Jul 18 16:37:20 2018


Gurobi 7.0.2 (mac64, Python) logging started Wed Jul 18 16:37:39 2018


Gurobi 7.0.2 (mac64, Python) logging started Wed Jul 18 16:39:47 2018


Gurobi 7.0.2 (mac64, Python) logging started Wed Jul 18 16:45:27 2018


Gurobi 7.0.2 (mac64, Python) logging started Wed Jul 18 16:45:48 2018


Gurobi 7.0.2 (mac64, Python) logging started Wed Jul 18 16:46:15 2018


Gurobi 7.0.2 (mac64, Python) logging started Wed Jul 18 16:46:28 2018


Gurobi 7.0.2 (mac64, Python) logging started Wed Jul 18 16:46:47 2018


Gurobi 7.0.2 (mac64, Python) logging started Wed Jul 18 16:47:26 2018


Gurobi 7.0.2 (mac64, Python) logging started Wed Jul 18 16:49:35 2018


Gurobi 7.0.2 (mac64, Python) logging started Wed Jul 18 16:49:51 2018


Gurobi 7.0.2 (mac64, Python) logging started Wed Jul 18 17:22:29 2018


Gurobi 7.0.2 (mac64, Python) logging started Wed Jul 18 17:22:55 2018


Gurobi 7.0.2 (mac64, Python) logging started Wed Jul 18 17:25:23 2018


Gurobi 7.0.2 (mac64, Python) logging started Wed Jul 18 17:28:18 2018


Gurobi 7.0.2 (mac64, Python) logging started Wed Jul 18 17:29:31 2018


Gurobi 7.0.2 (mac64, Python) logging started Wed Jul 18 17:30:13 2018


Gurobi 7.0.2 (mac64, Python) logging started Wed Jul 18 17:34:22 2018


Gurobi 7.0.2 (mac64, Python) logging started Wed Jul 18 17:34:44 2018


Gurobi 7.0.2 (mac64, Python) logging started Wed Jul 18 17:35:02 2018


Gurobi 7.0.2 (mac64, Python) logging started Wed Jul 18 17:37:16 2018


Gurobi 7.0.2 (mac64, Python) logging started Wed Jul 18 17:38:08 2018


Gurobi 7.0.2 (mac64, Python) logging started Wed Jul 18 17:38:24 2018


Gurobi 7.0.2 (mac64, Python) logging started Wed Jul 18 17:38:32 2018


Gurobi 7.0.2 (mac64, Python) logging started Wed Jul 18 17:41:51 2018


Gurobi 7.0.2 (mac64, Python) logging started Wed Jul 18 17:42:10 2018


Gurobi 7.0.2 (mac64, Python) logging started Wed Jul 18 17:42:23 2018


Gurobi 7.0.2 (mac64, Python) logging started Wed Jul 18 17:42:47 2018


Gurobi 7.0.2 (mac64, Python) logging started Wed Jul 18 17:43:04 2018


Gurobi 7.0.2 (mac64, Python) logging started Wed Jul 18 17:43:17 2018


Gurobi 7.0.2 (mac64, Python) logging started Wed Jul 18 17:43:44 2018


Gurobi 7.0.2 (mac64, Python) logging started Wed Jul 18 17:58:39 2018


Gurobi 7.0.2 (mac64, Python) logging started Wed Jul 18 17:59:18 2018


Gurobi 7.0.2 (mac64, Python) logging started Wed Jul 18 17:59:39 2018


Gurobi 7.0.2 (mac64, Python) logging started Wed Jul 18 17:59:54 2018


Gurobi 7.0.2 (mac64, Python) logging started Wed Jul 18 18:00:09 2018


Gurobi 7.0.2 (mac64, Python) logging started Wed Jul 18 18:00:37 2018


Gurobi 7.0.2 (mac64, Python) logging started Wed Jul 18 18:00:48 2018


Gurobi 7.0.2 (mac64, Python) logging started Wed Jul 18 18:01:00 2018


Gurobi 7.0.2 (mac64, Python) logging started Wed Jul 18 18:01:31 2018


Gurobi 7.0.2 (mac64, Python) logging started Wed Jul 18 18:01:54 2018


Gurobi 7.0.2 (mac64, Python) logging started Wed Jul 18 18:02:33 2018


Gurobi 7.0.2 (mac64, Python) logging started Wed Jul 18 18:15:58 2018


Gurobi 7.0.2 (mac64, Python) logging started Wed Jul 18 18:16:36 2018


Gurobi 7.0.2 (mac64, Python) logging started Thu Jul 19 11:44:41 2018


Gurobi 7.0.2 (mac64, Python) logging started Thu Jul 19 11:45:51 2018


Gurobi 7.0.2 (mac64, Python) logging started Thu Jul 19 11:46:53 2018


Gurobi 7.0.2 (mac64, Python) logging started Thu Jul 19 11:47:53 2018


Gurobi 7.0.2 (mac64, Python) logging started Thu Jul 19 11:51:00 2018


Gurobi 7.0.2 (mac64, Python) logging started Thu Jul 19 11:51:21 2018


Gurobi 7.0.2 (mac64, Python) logging started Thu Jul 19 11:54:30 2018


Gurobi 7.0.2 (mac64, Python) logging started Thu Jul 19 11:54:58 2018


Gurobi 7.0.2 (mac64, Python) logging started Thu Jul 19 11:55:18 2018


Gurobi 7.0.2 (mac64, Python) logging started Thu Jul 19 11:56:14 2018


Gurobi 7.0.2 (mac64, Python) logging started Thu Jul 19 11:56:40 2018


Gurobi 7.0.2 (mac64, Python) logging started Thu Jul 19 11:58:20 2018


Gurobi 7.0.2 (mac64, Python) logging started Thu Jul 19 11:58:35 2018


Gurobi 7.0.2 (mac64, Python) logging started Thu Jul 19 13:02:18 2018


Gurobi 7.0.2 (mac64, Python) logging started Thu Jul 19 13:03:26 2018


Gurobi 7.0.2 (mac64, Python) logging started Thu Jul 19 13:05:06 2018


Gurobi 7.0.2 (mac64, Python) logging started Thu Jul 19 13:08:51 2018


Gurobi 7.0.2 (mac64, Python) logging started Thu Jul 19 13:09:26 2018


Gurobi 7.0.2 (mac64, Python) logging started Thu Jul 19 13:10:30 2018


Gurobi 7.0.2 (mac64, Python) logging started Thu Jul 19 13:10:48 2018


Gurobi 7.0.2 (mac64, Python) logging started Thu Jul 19 13:12:44 2018


Gurobi 7.0.2 (mac64, Python) logging started Thu Jul 19 13:13:01 2018


Gurobi 7.0.2 (mac64, Python) logging started Thu Jul 19 13:13:28 2018


Gurobi 7.0.2 (mac64, Python) logging started Thu Jul 19 13:15:51 2018


Gurobi 7.0.2 (mac64, Python) logging started Thu Jul 19 13:23:21 2018


Gurobi 7.0.2 (mac64, Python) logging started Thu Jul 19 21:26:06 2018


Gurobi 7.0.2 (mac64, Python) logging started Thu Jul 19 21:26:33 2018


Gurobi 7.0.2 (mac64, Python) logging started Thu Jul 19 21:27:10 2018


Gurobi 7.0.2 (mac64, Python) logging started Thu Jul 19 21:28:07 2018


Gurobi 7.0.2 (mac64, Python) logging started Thu Jul 19 21:30:25 2018


Gurobi 7.0.2 (mac64, Python) logging started Thu Jul 19 21:30:43 2018


Gurobi 7.0.2 (mac64, Python) logging started Thu Jul 19 21:31:48 2018


Gurobi 7.0.2 (mac64, Python) logging started Thu Jul 19 21:32:06 2018


Gurobi 7.0.2 (mac64, Python) logging started Thu Jul 19 21:33:48 2018


Gurobi 7.0.2 (mac64, Python) logging started Thu Jul 19 21:37:15 2018


Gurobi 7.0.2 (mac64, Python) logging started Thu Jul 19 21:47:42 2018


Gurobi 7.0.2 (mac64, Python) logging started Thu Jul 19 21:48:33 2018


Gurobi 7.0.2 (mac64, Python) logging started Thu Jul 19 21:50:36 2018


Gurobi 7.0.2 (mac64, Python) logging started Thu Jul 19 21:51:15 2018


Gurobi 7.0.2 (mac64, Python) logging started Thu Jul 19 21:51:37 2018


Gurobi 7.0.2 (mac64, Python) logging started Thu Jul 19 22:01:30 2018


Gurobi 7.0.2 (mac64, Python) logging started Thu Jul 19 22:03:11 2018


Gurobi 7.0.2 (mac64, Python) logging started Thu Jul 19 22:06:19 2018


Gurobi 7.0.2 (mac64, Python) logging started Thu Jul 19 22:07:07 2018


Gurobi 7.0.2 (mac64, Python) logging started Thu Jul 19 22:08:05 2018


Gurobi 7.0.2 (mac64, Python) logging started Thu Jul 19 22:10:47 2018


Gurobi 7.0.2 (mac64, Python) logging started Thu Jul 19 22:11:14 2018


Gurobi 7.0.2 (mac64, Python) logging started Thu Jul 19 22:11:38 2018


Gurobi 7.0.2 (mac64, Python) logging started Thu Jul 19 22:31:38 2018


Gurobi 7.0.2 (mac64, Python) logging started Thu Jul 19 22:36:38 2018


Gurobi 7.0.2 (mac64, Python) logging started Thu Jul 19 22:36:57 2018


Gurobi 7.0.2 (mac64, Python) logging started Thu Jul 19 22:37:28 2018


Gurobi 7.0.2 (mac64, Python) logging started Thu Jul 19 22:38:09 2018


Gurobi 7.0.2 (mac64, Python) logging started Thu Jul 19 22:38:31 2018


Gurobi 7.0.2 (mac64, Python) logging started Thu Jul 19 22:39:05 2018


Gurobi 7.0.2 (mac64, Python) logging started Thu Jul 19 22:40:12 2018


Gurobi 7.0.2 (mac64, Python) logging started Thu Jul 19 22:41:46 2018


Gurobi 7.0.2 (mac64, Python) logging started Thu Jul 19 22:42:24 2018


Gurobi 7.0.2 (mac64, Python) logging started Thu Jul 19 22:42:38 2018


Gurobi 7.0.2 (mac64, Python) logging started Thu Jul 19 22:43:37 2018


Gurobi 7.0.2 (mac64, Python) logging started Thu Jul 19 23:04:02 2018


Gurobi 7.0.2 (mac64, Python) logging started Thu Jul 19 23:04:12 2018

